% From SICStus example dominoes.pl (instance 82)
% (8 solutions)
r = 9;
c = 10;
high = 8;
board = array2d(1..r, 1..c, 
     [
	6,4,4,1,2,2,8,7,1,1,
	6,7,2,3,8,1,2,1,5,1,
	6,8,3,1,2,5,5,1,6,4,
	6,8,0,0,0,0,0,7,2,5,
	7,7,8,0,0,0,4,3,3,5,
	8,8,8,0,0,1,2,8,4,4,
	4,6,5,6,3,5,3,7,4,7,
	3,8,7,2,3,5,5,6,1,2,
	6,3,5,3,4,4,7,7,2,6

    ])
;
